(set-logic QF_FPABV)
(declare-fun b41 () (_ FP 8 24))
(declare-fun b29 () (_ FP 8 24))
(declare-fun b10 () (_ FP 8 24))
(declare-fun b62 () (_ FP 8 24))
(declare-fun b119 () (_ FP 8 24))
(declare-fun b71 () (_ FP 8 24))
(declare-fun b44 () (_ FP 8 24))
(declare-fun b23 () (_ FP 8 24))
(declare-fun b53 () (_ FP 8 24))
(declare-fun b17 () (_ FP 8 24))
(declare-fun b59 () (_ FP 8 24))
(declare-fun b65 () (_ FP 8 24))
(declare-fun b11 () (_ FP 8 24))
(declare-fun b20 () (_ FP 8 24))
(declare-fun b26 () (_ FP 8 24))
(declare-fun b14 () (_ FP 8 24))
(declare-fun b35 () (_ FP 8 24))
(declare-fun b50 () (_ FP 8 24))
(declare-fun b32 () (_ FP 8 24))
(declare-fun b47 () (_ FP 8 24))
(declare-fun b38 () (_ FP 8 24))
(declare-fun b68 () (_ FP 8 24))
(declare-fun b56 () (_ FP 8 24))
(define-fun .3 () RoundingMode roundNearestTiesToEven)
(define-fun .9 () (_ FP 8 24) b11)
(define-fun .10 () (_ FP 8 24) b119)
(define-fun .11 () Bool (< .9 .10))
(define-fun .12 () (_ FP 8 24) b10)
(define-fun .13 () (_ FP 8 24) (/ .3 .12 .9))
(define-fun .14 () (_ FP 8 24) b14)
(define-fun .15 () (_ FP 8 24) (/ .3 .13 .14))
(define-fun .16 () (_ FP 8 24) b17)
(define-fun .17 () (_ FP 8 24) (/ .3 .15 .16))
(define-fun .18 () (_ FP 8 24) b20)
(define-fun .19 () (_ FP 8 24) (/ .3 .17 .18))
(define-fun .20 () (_ FP 8 24) b23)
(define-fun .21 () (_ FP 8 24) (/ .3 .19 .20))
(define-fun .22 () (_ FP 8 24) b26)
(define-fun .23 () (_ FP 8 24) (/ .3 .21 .22))
(define-fun .24 () (_ FP 8 24) b29)
(define-fun .25 () (_ FP 8 24) (/ .3 .23 .24))
(define-fun .26 () (_ FP 8 24) b32)
(define-fun .27 () (_ FP 8 24) (/ .3 .25 .26))
(define-fun .28 () (_ FP 8 24) b35)
(define-fun .29 () (_ FP 8 24) (/ .3 .27 .28))
(define-fun .30 () (_ FP 8 24) b38)
(define-fun .31 () (_ FP 8 24) (/ .3 .29 .30))
(define-fun .32 () (_ FP 8 24) b41)
(define-fun .33 () (_ FP 8 24) (/ .3 .31 .32))
(define-fun .34 () (_ FP 8 24) b44)
(define-fun .35 () (_ FP 8 24) (/ .3 .33 .34))
(define-fun .36 () (_ FP 8 24) b47)
(define-fun .37 () (_ FP 8 24) (/ .3 .35 .36))
(define-fun .38 () (_ FP 8 24) b50)
(define-fun .39 () (_ FP 8 24) (/ .3 .37 .38))
(define-fun .40 () (_ FP 8 24) b53)
(define-fun .41 () (_ FP 8 24) (/ .3 .39 .40))
(define-fun .42 () (_ FP 8 24) b56)
(define-fun .43 () (_ FP 8 24) (/ .3 .41 .42))
(define-fun .44 () (_ FP 8 24) b59)
(define-fun .45 () (_ FP 8 24) (/ .3 .43 .44))
(define-fun .46 () (_ FP 8 24) b62)
(define-fun .47 () (_ FP 8 24) (/ .3 .45 .46))
(define-fun .48 () (_ FP 8 24) b65)
(define-fun .49 () (_ FP 8 24) (/ .3 .47 .48))
(define-fun .50 () (_ FP 8 24) b68)
(define-fun .51 () (_ FP 8 24) (/ .3 .49 .50))
(define-fun .52 () (_ FP 8 24) b71)
(define-fun .53 () Bool (< .51 .52))
(define-fun .54 () Bool (and .11 .53))
(define-fun .55 () Bool (<= .52 .9))
(define-fun .56 () Bool (and .54 .55))
(define-fun .57 () Bool (< .14 .10))
(define-fun .58 () Bool (and .56 .57))
(define-fun .59 () Bool (<= .52 .14))
(define-fun .60 () Bool (and .58 .59))
(define-fun .61 () Bool (< .16 .10))
(define-fun .62 () Bool (and .60 .61))
(define-fun .63 () Bool (<= .52 .16))
(define-fun .64 () Bool (and .62 .63))
(define-fun .65 () Bool (< .18 .10))
(define-fun .66 () Bool (and .64 .65))
(define-fun .67 () Bool (<= .52 .18))
(define-fun .68 () Bool (and .66 .67))
(define-fun .69 () Bool (< .20 .10))
(define-fun .70 () Bool (and .68 .69))
(define-fun .71 () Bool (<= .52 .20))
(define-fun .72 () Bool (and .70 .71))
(define-fun .73 () Bool (< .22 .10))
(define-fun .74 () Bool (and .72 .73))
(define-fun .75 () Bool (<= .52 .22))
(define-fun .76 () Bool (and .74 .75))
(define-fun .77 () Bool (< .24 .10))
(define-fun .78 () Bool (and .76 .77))
(define-fun .79 () Bool (<= .52 .24))
(define-fun .80 () Bool (and .78 .79))
(define-fun .81 () Bool (< .26 .10))
(define-fun .82 () Bool (and .80 .81))
(define-fun .83 () Bool (<= .52 .26))
(define-fun .84 () Bool (and .82 .83))
(define-fun .85 () Bool (< .28 .10))
(define-fun .86 () Bool (and .84 .85))
(define-fun .87 () Bool (<= .52 .28))
(define-fun .88 () Bool (and .86 .87))
(define-fun .89 () Bool (< .30 .10))
(define-fun .90 () Bool (and .88 .89))
(define-fun .91 () Bool (<= .52 .30))
(define-fun .92 () Bool (and .90 .91))
(define-fun .93 () Bool (< .32 .10))
(define-fun .94 () Bool (and .92 .93))
(define-fun .95 () Bool (<= .52 .32))
(define-fun .96 () Bool (and .94 .95))
(define-fun .97 () Bool (< .34 .10))
(define-fun .98 () Bool (and .96 .97))
(define-fun .99 () Bool (<= .52 .34))
(define-fun .100 () Bool (and .98 .99))
(define-fun .101 () Bool (< .36 .10))
(define-fun .102 () Bool (and .100 .101))
(define-fun .103 () Bool (<= .52 .36))
(define-fun .104 () Bool (and .102 .103))
(define-fun .105 () Bool (< .38 .10))
(define-fun .106 () Bool (and .104 .105))
(define-fun .107 () Bool (<= .52 .38))
(define-fun .108 () Bool (and .106 .107))
(define-fun .109 () Bool (< .40 .10))
(define-fun .110 () Bool (and .108 .109))
(define-fun .111 () Bool (<= .52 .40))
(define-fun .112 () Bool (and .110 .111))
(define-fun .113 () Bool (< .42 .10))
(define-fun .114 () Bool (and .112 .113))
(define-fun .115 () Bool (<= .52 .42))
(define-fun .116 () Bool (and .114 .115))
(define-fun .117 () Bool (< .44 .10))
(define-fun .118 () Bool (and .116 .117))
(define-fun .119 () Bool (<= .52 .44))
(define-fun .120 () Bool (and .118 .119))
(define-fun .121 () Bool (< .46 .10))
(define-fun .122 () Bool (and .120 .121))
(define-fun .123 () Bool (<= .52 .46))
(define-fun .124 () Bool (and .122 .123))
(define-fun .125 () Bool (< .48 .10))
(define-fun .126 () Bool (and .124 .125))
(define-fun .127 () Bool (<= .52 .48))
(define-fun .128 () Bool (and .126 .127))
(define-fun .129 () Bool (< .50 .10))
(define-fun .130 () Bool (and .128 .129))
(define-fun .131 () Bool (<= .52 .50))
(define-fun .132 () Bool (and .130 .131))
(assert .132)
(check-sat)
